JulietBench/Juliet_Based_Patch_Bench/linux/CWE-189-Numeric-Errors/CVE_2010_3015_731eb1a03a8445cde2cb23ecfb3580c6fa7bb690/solverext4_ext_get_blocks_Snippet_patch1.smt2
; benchmark generated from python API
(set-info :status unknown)
(declare-fun R () (_ BitVec 32))
(declare-fun rdi () (_ BitVec 64))
(declare-fun rsi () (_ BitVec 64))
(assert
 (let (($x580 (= (_ bv0 32) R)))
 (let ((?x6 ((_ extract 31 0) rdi)))
 (let ((?x8 ((_ extract 31 0) rsi)))
 (let (($x14 (bvult ?x8 ?x6)))
 (let (($x444 (and $x14 $x580)))
 (let (($x39 (bvuge ?x8 ?x6)))
 (let ((?x447 (bvadd ?x6 (_ bv49 32))))
 (let (($x846 (bvugt ?x8 ?x447)))
 (let (($x853 (and $x846 $x39 $x580)))
 (let ((?x67 (bvmul (_ bv4294967295 32) ?x8)))
 (let ((?x71 (bvadd (_ bv50 32) ?x6)))
 (let ((?x59 (bvadd ?x71 ?x67)))
 (let (($x453 (= R ?x59)))
 (let (($x589 (bvule ?x8 ?x447)))
 (let (($x426 (and $x589 $x39 $x453)))
 (let (($x854 (or $x426 $x853 $x444)))
 (let (($x857 (not $x854)))
 (let ((?x60 (bvadd ?x6 (_ bv50 32))))
 (let (($x390 (bvuge ?x8 ?x60)))
 (let (($x581 (and $x390 $x39 $x580)))
 (let (($x73 (bvult ?x8 ?x60)))
 (let (($x579 (and $x73 $x39 $x453)))
 (let (($x438 (or $x579 $x581 $x444)))
 (let (($x856 (not $x438)))
 (let (($x858 (and $x856 $x857)))
 (let (($x855 (and $x438 $x854)))
 (let (($x859 (or $x855 $x858)))
 (not $x859)))))))))))))))))))))))))))))
(check-sat)
